data/solutions/recovery/degenerate/intermediate/flexible/degenerate_intermediate_instance21/27.sol
Elapsed time: 100.12
Upper bound: 28415864.0
Planning weighted value: 1.01610482392e+11
C[0]=28415864.0
C[1]=28409103.0
C[2]=28399505.0
C[3]=28378227.0
C[4]=28314334.0
C[5]=28177297.0
C[6]=28073004.0
C[7]=27984764.0
C[8]=27778050.0
C[9]=27068398.0
C[10]=0.0
C[11]=0.0
y[0]=9
y[1]=0
y[2]=6
y[3]=1
y[4]=0
y[5]=5
y[6]=8
y[7]=7
y[8]=9
y[9]=7
y[10]=3
y[11]=9
y[12]=7
y[13]=7
y[14]=5
y[15]=7
y[16]=3
y[17]=9
y[18]=1
y[19]=5
y[20]=8
y[21]=2
y[22]=4
y[23]=9
y[24]=1
y[25]=8
y[26]=8
y[27]=9
y[28]=2
y[29]=8
y[30]=3
y[31]=7
y[32]=3
y[33]=5
y[34]=6
y[35]=4
y[36]=6
y[37]=9
y[38]=6
y[39]=9
y[40]=5
y[41]=6
y[42]=8
y[43]=3
y[44]=0
y[45]=7
y[46]=2
y[47]=2
y[48]=7
y[49]=3
y[50]=5
y[51]=9
y[52]=3
y[53]=2
y[54]=0
y[55]=3
y[56]=1
y[57]=4
y[58]=9
y[59]=3
y[60]=1
y[61]=0
y[62]=6
y[63]=4
y[64]=2
