data/solutions/recovery/degenerate/intermediate/flexible/degenerate_intermediate_instance21/27.log

Log started (V12.6.3.0) Sat Apr 21 12:28:28 2018

New value for default parallel thread count: 1

Problem '/tmp/tmpsQ2M91.pyomo.lp' read.
Read time = 0.01 sec. (0.54 ticks)

Problem name         : /tmp/tmpsQ2M91.pyomo.lp
Objective sense      : Minimize
Variables            :     794  [Nneg: 1,  Binary: 780,  General Integer: 13]
Objective nonzeros   :       1
Linear constraints   :     157  [Less: 77,  Equal: 80]
  Nonzeros           :   38156
  RHS nonzeros       :     131

Variables            : Min LB: 0.000000         Max UB: 1.000000       
Objective nonzeros   : Min   : 1.000000         Max   : 1.000000       
Linear constraints   :
  Nonzeros           : Min   : 1.000000         Max   : 8298339.       
  RHS nonzeros       : Min   : 1.000000         Max   : 7.000000       
Tried aggregator 2 times.
MIP Presolve eliminated 71 rows and 160 columns.
Aggregator did 3 substitutions.
Reduced MIP has 83 rows, 631 columns, and 1702 nonzeros.
Reduced MIP has 620 binaries, 11 generals, 0 SOSs, and 0 indicators.
Presolve time = 0.01 sec. (6.92 ticks)
Found incumbent of value 9.6123549e+07 after 0.01 sec. (7.96 ticks)
Probing time = 0.00 sec. (1.74 ticks)
Cover probing fixed 0 vars, tightened 21 bounds.
Tried aggregator 2 times.
Aggregator did 10 substitutions.
Reduced MIP has 73 rows, 621 columns, and 1682 nonzeros.
Reduced MIP has 620 binaries, 1 generals, 0 SOSs, and 0 indicators.
Presolve time = 0.00 sec. (1.59 ticks)
Probing time = 0.00 sec. (0.94 ticks)
Cover probing fixed 0 vars, tightened 6 bounds.
Clique table members: 62.
MIP emphasis: balance optimality and feasibility.
MIP search method: dynamic search.
Parallel mode: none, using 1 thread.
Root relaxation solution time = 0.00 sec. (0.63 ticks)

        Nodes                                         Cuts/
   Node  Left     Objective  IInf  Best Integer    Best Bound    ItCnt     Gap

*     0+    0                       9.61235e+07        0.0000           100.00%
      0     0   2.80999e+07    16   9.61235e+07   2.80999e+07       28   70.77%
*     0+    0                       3.26649e+07   2.80999e+07            13.98%
      0     0   2.80999e+07    21   3.26649e+07      Fract: 6       45   13.98%
      0     0   2.80999e+07    27   3.26649e+07       Cuts: 7       69   13.98%
*     0+    0                       3.22179e+07   2.80999e+07            12.78%
*     0+    0                       3.19069e+07   2.80999e+07            11.93%
*     0+    0                       3.14782e+07   2.80999e+07            10.73%
*     0+    0                       3.13756e+07   2.80999e+07            10.44%
      0     2   2.80999e+07    16   3.13756e+07   2.80999e+07       69   10.44%
Elapsed time = 0.03 sec. (37.55 ticks, tree = 0.01 MB, solutions = 5)
*    10+   10                       3.07564e+07   2.80999e+07             8.64%
*    40+   40                       3.03983e+07   2.80999e+07             7.56%
*   360+  325                       3.01447e+07   2.80999e+07             6.78%
*   501+  301                       3.01092e+07   2.80999e+07             6.67%
*   601+  209                       3.00034e+07   2.80999e+07             6.34%
*   601+  159                       2.97267e+07   2.80999e+07             5.47%
*   601+  127                       2.96185e+07   2.80999e+07             5.13%
*   601+  104                       2.94846e+07   2.80999e+07             4.70%
    670   132   2.80999e+07    21   2.94846e+07   2.80999e+07     3773    4.70%
    671   132   2.80999e+07    19   2.94846e+07   2.80999e+07     3774    4.70%
    672   133   2.80999e+07    19   2.94846e+07   2.80999e+07     3778    4.70%
    673   133   2.80999e+07    18   2.94846e+07   2.80999e+07     3781    4.70%
    674   133   2.80999e+07    19   2.94846e+07   2.80999e+07     3789    4.70%
    675   134   2.80999e+07    18   2.94846e+07   2.80999e+07     3790    4.70%
    676   132        cutoff         2.94846e+07   2.80999e+07     3825    4.70%
    677   132   2.80999e+07    22   2.94846e+07   2.80999e+07     3830    4.70%
    678   133   2.80999e+07    22   2.94846e+07   2.80999e+07     3831    4.70%
*   701+  140                       2.94350e+07   2.80999e+07             4.54%
*   701+  140                       2.93653e+07   2.80999e+07             4.31%
*   701+  140                       2.92569e+07   2.80999e+07             3.95%
*   701+  140                       2.92368e+07   2.80999e+07             3.89%
*   801+  198                       2.89776e+07   2.80999e+07             3.03%
*  1001+  336                       2.89067e+07   2.80999e+07             2.79%
*  1201+  474                       2.88966e+07   2.80999e+07             2.76%
   1201   476   2.80999e+07    21   2.88966e+07   2.80999e+07     6086    2.76%
Elapsed time = 0.87 sec. (1026.09 ticks, tree = 0.22 MB, solutions = 20)
*  1401+  617                       2.88576e+07   2.80999e+07             2.63%
   4657  3207   2.80999e+07    17   2.88576e+07   2.80999e+07    24556    2.63%
   4658  3208   2.80999e+07    17   2.88576e+07   2.80999e+07    24557    2.63%
   4659  3209   2.80999e+07    18   2.88576e+07   2.80999e+07    24558    2.63%
   4660  3210   2.80999e+07    18   2.88576e+07   2.80999e+07    24559    2.63%
   4661  3211   2.80999e+07    19   2.88576e+07   2.80999e+07    24561    2.63%
   4662  3212   2.80999e+07    17   2.88576e+07   2.80999e+07    24562    2.63%
   4663  3213   2.85907e+07    17   2.88576e+07   2.80999e+07    24582    2.63%
   4664  3214   2.85907e+07    16   2.88576e+07   2.80999e+07    24584    2.63%
   4665  3215   2.85907e+07    15   2.88576e+07   2.80999e+07    24586    2.63%
   4666  3216   2.85907e+07    15   2.88576e+07   2.80999e+07    24592    2.63%
Elapsed time = 1.64 sec. (1981.51 ticks, tree = 1.54 MB, solutions = 21)
   8929  6600        cutoff         2.88576e+07   2.80999e+07    51981    2.63%
   8930  6599        cutoff         2.88576e+07   2.80999e+07    52006    2.63%
   8931  6600   2.80999e+07    19   2.88576e+07   2.80999e+07    52020    2.63%
   8932  6601   2.80999e+07    20   2.88576e+07   2.80999e+07    52024    2.63%
   8933  6602   2.80999e+07    20   2.88576e+07   2.80999e+07    52029    2.63%
   8934  6603   2.80999e+07    20   2.88576e+07   2.80999e+07    52030    2.63%
   8935  6604   2.80999e+07    20   2.88576e+07   2.80999e+07    52031    2.63%
   8936  6605   2.80999e+07    20   2.88576e+07   2.80999e+07    52032    2.63%
   8937  6606   2.80999e+07    20   2.88576e+07   2.80999e+07    52033    2.63%
   8938  6607   2.80999e+07    20   2.88576e+07   2.80999e+07    52034    2.63%
Elapsed time = 2.45 sec. (2939.14 ticks, tree = 3.17 MB, solutions = 21)
* 10461+ 7515                       2.87204e+07   2.80999e+07             2.16%
* 10461+ 7234                       2.86036e+07   2.80999e+07             1.76%
  11585  8131   2.82955e+07    20   2.86036e+07   2.80999e+07    71668    1.76%
  11586  8132   2.82957e+07    20   2.86036e+07   2.80999e+07    71670    1.76%
  11587  8133   2.83501e+07    21   2.86036e+07   2.80999e+07    71672    1.76%
  11588  8133   2.83506e+07    21   2.86036e+07   2.80999e+07    71673    1.76%
  11589  8134   2.83512e+07    21   2.86036e+07   2.80999e+07    71674    1.76%
  11590  8135   2.83754e+07    22   2.86036e+07   2.80999e+07    71681    1.76%
  11591  8136   2.83757e+07    22   2.86036e+07   2.80999e+07    71684    1.76%
  11592  8137   2.83759e+07    22   2.86036e+07   2.80999e+07    71685    1.76%
  11593  8137   2.83759e+07    22   2.86036e+07   2.80999e+07    71686    1.76%
  11594  8138   2.84643e+07    24   2.86036e+07   2.80999e+07    71690    1.76%
Elapsed time = 3.76 sec. (3894.63 ticks, tree = 3.84 MB, solutions = 23)
  15291 11164   2.84505e+07    24   2.86036e+07   2.80999e+07   102463    1.76%
  15292 11164   2.84505e+07    24   2.86036e+07   2.80999e+07   102464    1.76%
  15293 11163   2.84505e+07    24   2.86036e+07   2.80999e+07   102465    1.76%
  15294 11163   2.80999e+07    20   2.86036e+07   2.80999e+07   102530    1.76%
  15295 11164   2.80999e+07    23   2.86036e+07   2.80999e+07   102542    1.76%
  15296 11165   2.80999e+07    22   2.86036e+07   2.80999e+07   102545    1.76%
  15297 11166   2.80999e+07    25   2.86036e+07   2.80999e+07   102553    1.76%
  15298 11167   2.80999e+07    24   2.86036e+07   2.80999e+07   102567    1.76%
  15299 11168   2.80999e+07    21   2.86036e+07   2.80999e+07   102583    1.76%
  15300 11168   2.84742e+07    22   2.86036e+07   2.80999e+07   102684    1.76%
Elapsed time = 4.68 sec. (4855.14 ticks, tree = 5.42 MB, solutions = 23)
  18424 13755   2.80999e+07    21   2.86036e+07   2.80999e+07   132199    1.76%
  18425 13756   2.80999e+07    19   2.86036e+07   2.80999e+07   132202    1.76%
  18426 13757   2.80999e+07    26   2.86036e+07   2.80999e+07   132208    1.76%
  18427 13758   2.80999e+07    20   2.86036e+07   2.80999e+07   132209    1.76%
  18428 13759   2.80999e+07    25   2.86036e+07   2.80999e+07   132212    1.76%
  18429 13760   2.80999e+07    24   2.86036e+07   2.80999e+07   132216    1.76%
  18430 13761   2.80999e+07    25   2.86036e+07   2.80999e+07   132218    1.76%
  18431 13762   2.80999e+07    25   2.86036e+07   2.80999e+07   132223    1.76%
  18432 13761        cutoff         2.86036e+07   2.80999e+07   132229    1.76%
  18433 13760        cutoff         2.86036e+07   2.80999e+07   132290    1.76%
Elapsed time = 5.41 sec. (5810.99 ticks, tree = 6.62 MB, solutions = 23)
  20763 15582   2.80999e+07    22   2.86036e+07   2.80999e+07   157857    1.76%
  20764 15583   2.80999e+07    19   2.86036e+07   2.80999e+07   157858    1.76%
  20765 15584   2.80999e+07    28   2.86036e+07   2.80999e+07   157887    1.76%
  20766 15585   2.82020e+07    21   2.86036e+07   2.80999e+07   157947    1.76%
  20767 15586   2.80999e+07    25   2.86036e+07   2.80999e+07   157955    1.76%
  20768 15587   2.80999e+07    23   2.86036e+07   2.80999e+07   157962    1.76%
  20769 15588   2.80999e+07    22   2.86036e+07   2.80999e+07   157983    1.76%
  20770 15589   2.80999e+07    22   2.86036e+07   2.80999e+07   157984    1.76%
  20771 15590   2.80999e+07    23   2.86036e+07   2.80999e+07   157994    1.76%
  20772 15589        cutoff         2.86036e+07   2.80999e+07   158012    1.76%
Elapsed time = 6.14 sec. (6769.14 ticks, tree = 7.44 MB, solutions = 23)
  23333 17740   2.80999e+07    34   2.86036e+07   2.80999e+07   185142    1.76%
  23334 17741   2.80999e+07    34   2.86036e+07   2.80999e+07   185144    1.76%
  23335 17742   2.80999e+07    32   2.86036e+07   2.80999e+07   185154    1.76%
  23336 17743   2.80999e+07    29   2.86036e+07   2.80999e+07   185193    1.76%
  23337 17744   2.80999e+07    32   2.86036e+07   2.80999e+07   185216    1.76%
  23338 17745   2.80999e+07    27   2.86036e+07   2.80999e+07   185234    1.76%
  23339 17746   2.82421e+07    30   2.86036e+07   2.80999e+07   185314    1.76%
  23340 17747   2.82552e+07    28   2.86036e+07   2.80999e+07   185317    1.76%
  23341 17748   2.82557e+07    28   2.86036e+07   2.80999e+07   185319    1.76%
  23342 17749   2.83658e+07    29   2.86036e+07   2.80999e+07   185339    1.76%
Elapsed time = 6.82 sec. (7727.87 ticks, tree = 8.87 MB, solutions = 23)
  25322 19177   2.80999e+07    23   2.86036e+07   2.80999e+07   210587    1.76%
  25323 19178   2.80999e+07    25   2.86036e+07   2.80999e+07   210605    1.76%
  25324 19179   2.80999e+07    27   2.86036e+07   2.80999e+07   210648    1.76%
  25325 19180   2.80999e+07    24   2.86036e+07   2.80999e+07   210652    1.76%
  25326 19181   2.80999e+07    29   2.86036e+07   2.80999e+07   210666    1.76%
  25327 19182   2.80999e+07    25   2.86036e+07   2.80999e+07   210667    1.76%
  25328 19183   2.80999e+07    28   2.86036e+07   2.80999e+07   210674    1.76%
  25329 19184   2.80999e+07    28   2.86036e+07   2.80999e+07   210680    1.76%
  25330 19185   2.80999e+07    28   2.86036e+07   2.80999e+07   210684    1.76%
  25331 19186   2.80999e+07    21   2.86036e+07   2.80999e+07   210699    1.76%
Elapsed time = 7.50 sec. (8684.54 ticks, tree = 9.53 MB, solutions = 23)
  27572 21045   2.82306e+07    24   2.86036e+07   2.80999e+07   237329    1.76%
  27573 21044        cutoff         2.86036e+07   2.80999e+07   237340    1.76%
  27574 21043    infeasible         2.86036e+07   2.80999e+07   237340    1.76%
  27575 21042        cutoff         2.86036e+07   2.80999e+07   237391    1.76%
  27576 21041        cutoff         2.86036e+07   2.80999e+07   237498    1.76%
  27577 21040    infeasible         2.86036e+07   2.80999e+07   237498    1.76%
  27578 21041   2.80999e+07    19   2.86036e+07   2.80999e+07   237524    1.76%
  27579 21042   2.80999e+07    17   2.86036e+07   2.80999e+07   237533    1.76%
  27580 21043   2.80999e+07    15   2.86036e+07   2.80999e+07   237592    1.76%
  32501 24909   2.80999e+07    35   2.86036e+07   2.80999e+07   313424    1.76%
Elapsed time = 10.39 sec. (12553.46 ticks, tree = 12.23 MB, solutions = 23)
  38843 29670   2.80999e+07    41   2.86036e+07   2.80999e+07   411549    1.76%
  38844 29671   2.80999e+07    40   2.86036e+07   2.80999e+07   411554    1.76%
  38845 29670    infeasible         2.86036e+07   2.80999e+07   411577    1.76%
  38846 29671   2.80999e+07    35   2.86036e+07   2.80999e+07   411586    1.76%
  38847 29672   2.80999e+07    36   2.86036e+07   2.80999e+07   411614    1.76%
  38848 29671        cutoff         2.86036e+07   2.80999e+07   411626    1.76%
  38849 29672   2.80999e+07    36   2.86036e+07   2.80999e+07   411636    1.76%
  38850 29671        cutoff         2.86036e+07   2.80999e+07   411659    1.76%
  38851 29672   2.80999e+07    35   2.86036e+07   2.80999e+07   411663    1.76%
  38852 29673   2.80999e+07    35   2.86036e+07   2.80999e+07   411665    1.76%
Elapsed time = 13.09 sec. (16375.85 ticks, tree = 14.56 MB, solutions = 23)
* 45001+34426                       2.85548e+07   2.80999e+07             1.59%
  45469 34779   2.80999e+07    37   2.85548e+07   2.80999e+07   507578    1.59%
  45470 34780   2.80999e+07    31   2.85548e+07   2.80999e+07   507581    1.59%
  45471 34781   2.80999e+07    26   2.85548e+07   2.80999e+07   507591    1.59%
  45472 34782   2.80999e+07    39   2.85548e+07   2.80999e+07   507601    1.59%
  45473 34783   2.80999e+07    40   2.85548e+07   2.80999e+07   507604    1.59%
  45474 34784   2.80999e+07    39   2.85548e+07   2.80999e+07   507607    1.59%
  45475 34785   2.80999e+07    29   2.85548e+07   2.80999e+07   507613    1.59%
  45476 34786   2.80999e+07    28   2.85548e+07   2.80999e+07   507625    1.59%
  45477 34787   2.80999e+07    28   2.85548e+07   2.80999e+07   507626    1.59%
  45478 34788   2.80999e+07    27   2.85548e+07   2.80999e+07   507633    1.59%
Elapsed time = 15.80 sec. (20195.31 ticks, tree = 17.94 MB, solutions = 24)
  52258 39388   2.80999e+07    36   2.85548e+07   2.80999e+07   617125    1.59%
  52259 39389   2.80999e+07    32   2.85548e+07   2.80999e+07   617129    1.59%
  52260 39390   2.80999e+07    28   2.85548e+07   2.80999e+07   617134    1.59%
  52261 39391   2.80999e+07    29   2.85548e+07   2.80999e+07   617162    1.59%
  52262 39392   2.80999e+07    27   2.85548e+07   2.80999e+07   617169    1.59%
  52263 39393   2.80999e+07    26   2.85548e+07   2.80999e+07   617177    1.59%
  52264 39394   2.80999e+07    26   2.85548e+07   2.80999e+07   617178    1.59%
  52265 39395   2.80999e+07    26   2.85548e+07   2.80999e+07   617179    1.59%
  52266 39396   2.80999e+07    25   2.85548e+07   2.80999e+07   617186    1.59%
  52267 39397   2.80999e+07    22   2.85548e+07   2.80999e+07   617190    1.59%
Elapsed time = 18.52 sec. (24013.46 ticks, tree = 20.13 MB, solutions = 24)
* 53601+39233                       2.84580e+07   2.80999e+07             1.26%
* 53601+38979                       2.84351e+07   2.80999e+07             1.18%
  58344 42617   2.80999e+07    37   2.84351e+07   2.80999e+07   712701    1.18%
  58345 42618   2.80999e+07    37   2.84351e+07   2.80999e+07   712702    1.18%
  58346 42619   2.80999e+07    36   2.84351e+07   2.80999e+07   712704    1.18%
  58347 42620   2.80999e+07    40   2.84351e+07   2.80999e+07   712712    1.18%
  58348 42621   2.80999e+07    39   2.84351e+07   2.80999e+07   712714    1.18%
  58349 42622   2.80999e+07    41   2.84351e+07   2.80999e+07   712716    1.18%
  58350 42623   2.80999e+07    40   2.84351e+07   2.80999e+07   712718    1.18%
  58351 42624   2.80999e+07    39   2.84351e+07   2.80999e+07   712719    1.18%
  58352 42625   2.80999e+07    30   2.84351e+07   2.80999e+07   712723    1.18%
  58353 42626   2.80999e+07    27   2.84351e+07   2.80999e+07   712732    1.18%
Elapsed time = 21.31 sec. (27831.57 ticks, tree = 21.65 MB, solutions = 26)
  64299 47043   2.80999e+07    25   2.84351e+07   2.80999e+07   818692    1.18%
  64300 47044   2.80999e+07    24   2.84351e+07   2.80999e+07   818701    1.18%
  64301 47045   2.80999e+07    24   2.84351e+07   2.80999e+07   818704    1.18%
  64302 47046   2.80999e+07    21   2.84351e+07   2.80999e+07   818706    1.18%
  64303 47047   2.80999e+07    21   2.84351e+07   2.80999e+07   818708    1.18%
  64304 47048   2.80999e+07    24   2.84351e+07   2.80999e+07   818717    1.18%
  64305 47049   2.80999e+07    24   2.84351e+07   2.80999e+07   818724    1.18%
  64306 47050   2.80999e+07    22   2.84351e+07   2.80999e+07   818725    1.18%
  64307 47051   2.80999e+07    24   2.84351e+07   2.80999e+07   818732    1.18%
  64308 47052   2.80999e+07    24   2.84351e+07   2.80999e+07   818745    1.18%
Elapsed time = 24.35 sec. (31648.79 ticks, tree = 23.82 MB, solutions = 26)
* 70901+51128                       2.84159e+07   2.80999e+07             1.11%
  71049 51247   2.80999e+07    37   2.84159e+07   2.80999e+07   919517    1.11%
  71050 51248   2.80999e+07    36   2.84159e+07   2.80999e+07   919519    1.11%
  71051 51249   2.80999e+07    35   2.84159e+07   2.80999e+07   919549    1.11%
  71052 51250   2.81280e+07    34   2.84159e+07   2.80999e+07   919573    1.11%
  71053 51251   2.81491e+07    33   2.84159e+07   2.80999e+07   919577    1.11%
  71054 51252   2.81493e+07    32   2.84159e+07   2.80999e+07   919578    1.11%
  71055 51253   2.81511e+07    30   2.84159e+07   2.80999e+07   919587    1.11%
  71056 51254   2.81535e+07    29   2.84159e+07   2.80999e+07   919589    1.11%
  71057 51255   2.81581e+07    26   2.84159e+07   2.80999e+07   919593    1.11%
  71058 51256   2.81639e+07    26   2.84159e+07   2.80999e+07   919595    1.11%
Elapsed time = 27.18 sec. (35467.72 ticks, tree = 25.82 MB, solutions = 27)
  77108 55370   2.80999e+07    33   2.84159e+07   2.80999e+07  1024309    1.11%
  77109 55369        cutoff         2.84159e+07   2.80999e+07  1024340    1.11%
  77110 55370   2.83693e+07    31   2.84159e+07   2.80999e+07  1024393    1.11%
  77111 55371   2.80999e+07    34   2.84159e+07   2.80999e+07  1024395    1.11%
  77112 55372   2.80999e+07    32   2.84159e+07   2.80999e+07  1024398    1.11%
  77113 55373   2.80999e+07    32   2.84159e+07   2.80999e+07  1024406    1.11%
  77114 55374   2.80999e+07    32   2.84159e+07   2.80999e+07  1024407    1.11%
  77115 55375   2.80999e+07    36   2.84159e+07   2.80999e+07  1024418    1.11%
  77116 55374        cutoff         2.84159e+07   2.80999e+07  1024441    1.11%
  77117 55375   2.80999e+07    39   2.84159e+07   2.80999e+07  1024447    1.11%
Elapsed time = 30.00 sec. (39289.76 ticks, tree = 27.87 MB, solutions = 27)
  82958 59409        cutoff         2.84159e+07   2.80999e+07  1130156    1.11%
  82959 59410   2.80999e+07    23   2.84159e+07   2.80999e+07  1130201    1.11%
  82960 59411   2.80999e+07    23   2.84159e+07   2.80999e+07  1130204    1.11%
  82961 59412   2.80999e+07    24   2.84159e+07   2.80999e+07  1130213    1.11%
  82962 59413   2.81100e+07    23   2.84159e+07   2.80999e+07  1130330    1.11%
  82963 59412    infeasible         2.84159e+07   2.80999e+07  1130339    1.11%
  82964 59411        cutoff         2.84159e+07   2.80999e+07  1130351    1.11%
  82965 59410        cutoff         2.84159e+07   2.80999e+07  1130483    1.11%
  82966 59411   2.80999e+07    23   2.84159e+07   2.80999e+07  1130513    1.11%
  82967 59412   2.80999e+07    24   2.84159e+07   2.80999e+07  1130542    1.11%
Elapsed time = 32.78 sec. (43118.21 ticks, tree = 29.82 MB, solutions = 27)
  90121 64869   2.80999e+07    24   2.84159e+07   2.80999e+07  1233545    1.11%
  90122 64870   2.80999e+07    24   2.84159e+07   2.80999e+07  1233547    1.11%
  90123 64871   2.80999e+07    22   2.84159e+07   2.80999e+07  1233553    1.11%
  90124 64872   2.80999e+07    21   2.84159e+07   2.80999e+07  1233554    1.11%
  90125 64873   2.80999e+07    21   2.84159e+07   2.80999e+07  1233559    1.11%
  90126 64874   2.80999e+07    21   2.84159e+07   2.80999e+07  1233562    1.11%
  90127 64875   2.80999e+07    21   2.84159e+07   2.80999e+07  1233563    1.11%
  90128 64876   2.80999e+07    22   2.84159e+07   2.80999e+07  1233600    1.11%
  90129 64877   2.80999e+07    26   2.84159e+07   2.80999e+07  1233606    1.11%
  90130 64878   2.80999e+07    23   2.84159e+07   2.80999e+07  1233609    1.11%
Elapsed time = 35.65 sec. (46937.76 ticks, tree = 32.42 MB, solutions = 27)
  96523 69043        cutoff         2.84159e+07   2.80999e+07  1339137    1.11%
  96524 69044   2.80999e+07    23   2.84159e+07   2.80999e+07  1339165    1.11%
  96525 69045   2.80999e+07    25   2.84159e+07   2.80999e+07  1339206    1.11%
  96526 69046   2.80999e+07    24   2.84159e+07   2.80999e+07  1339215    1.11%
  96527 69047   2.80999e+07    22   2.84159e+07   2.80999e+07  1339223    1.11%
  96528 69048   2.80999e+07    24   2.84159e+07   2.80999e+07  1339225    1.11%
  96529 69049   2.80999e+07    24   2.84159e+07   2.80999e+07  1339233    1.11%
  96530 69050   2.80999e+07    24   2.84159e+07   2.80999e+07  1339234    1.11%
  96531 69051   2.80999e+07    22   2.84159e+07   2.80999e+07  1339239    1.11%
  96532 69052   2.80999e+07    26   2.84159e+07   2.80999e+07  1339245    1.11%
Elapsed time = 38.65 sec. (50756.66 ticks, tree = 36.33 MB, solutions = 27)
 102631 72786   2.80999e+07    22   2.84159e+07   2.80999e+07  1453277    1.11%
 102632 72787   2.80999e+07    24   2.84159e+07   2.80999e+07  1453302    1.11%
 102633 72788   2.80999e+07    25   2.84159e+07   2.80999e+07  1453326    1.11%
 102634 72789   2.80999e+07    26   2.84159e+07   2.80999e+07  1453402    1.11%
 102635 72790   2.80999e+07    27   2.84159e+07   2.80999e+07  1453412    1.11%
 102636 72791   2.80999e+07    29   2.84159e+07   2.80999e+07  1453422    1.11%
 102637 72792   2.80999e+07    24   2.84159e+07   2.80999e+07  1453429    1.11%
 102638 72793   2.80999e+07    23   2.84159e+07   2.80999e+07  1453441    1.11%
 102639 72794   2.80999e+07    21   2.84159e+07   2.80999e+07  1453448    1.11%
 102640 72795   2.80999e+07    20   2.84159e+07   2.80999e+07  1453449    1.11%
Elapsed time = 41.37 sec. (54576.50 ticks, tree = 38.14 MB, solutions = 27)
 109413 77354   2.81051e+07    21   2.84159e+07   2.80999e+07  1567481    1.11%
 109414 77355   2.81065e+07    20   2.84159e+07   2.80999e+07  1567483    1.11%
 109415 77355   2.81702e+07    21   2.84159e+07   2.80999e+07  1567490    1.11%
 109416 77356   2.81702e+07    19   2.84159e+07   2.80999e+07  1567492    1.11%
 109417 77357   2.81702e+07    17   2.84159e+07   2.80999e+07  1567496    1.11%
 109418 77358   2.81734e+07    16   2.84159e+07   2.80999e+07  1567497    1.11%
 109419 77357        cutoff         2.84159e+07   2.80999e+07  1567502    1.11%
 109420 77356        cutoff         2.84159e+07   2.80999e+07  1567507    1.11%
 109421 77357   2.80999e+07    24   2.84159e+07   2.80999e+07  1567535    1.11%
 109422 77358   2.80999e+07    22   2.84159e+07   2.80999e+07  1567539    1.11%
Elapsed time = 44.42 sec. (58394.83 ticks, tree = 40.34 MB, solutions = 27)
 116107 81709   2.80999e+07    20   2.84159e+07   2.80999e+07  1669904    1.11%
 116108 81710   2.80999e+07    20   2.84159e+07   2.80999e+07  1669906    1.11%
 116109 81711   2.80999e+07    23   2.84159e+07   2.80999e+07  1669935    1.11%
 116110 81712   2.80999e+07    20   2.84159e+07   2.80999e+07  1669938    1.11%
 116111 81713   2.80999e+07    24   2.84159e+07   2.80999e+07  1669961    1.11%
 116112 81714   2.80999e+07    30   2.84159e+07   2.80999e+07  1670149    1.11%
 116113 81715   2.80999e+07    25   2.84159e+07   2.80999e+07  1670239    1.11%
 116114 81714        cutoff         2.84159e+07   2.80999e+07  1670279    1.11%
 116115 81713        cutoff         2.84159e+07   2.80999e+07  1670344    1.11%
 116116 81714   2.80999e+07    20   2.84159e+07   2.80999e+07  1670375    1.11%
Elapsed time = 47.30 sec. (62222.96 ticks, tree = 42.44 MB, solutions = 27)
 122711 86416   2.83087e+07    22   2.84159e+07   2.80999e+07  1777080    1.11%
 122712 86417   2.83087e+07    21   2.84159e+07   2.80999e+07  1777084    1.11%
 122713 86417   2.83087e+07    22   2.84159e+07   2.80999e+07  1777087    1.11%
 122714 86416    infeasible         2.84159e+07   2.80999e+07  1777087    1.11%
 122715 86415        cutoff         2.84159e+07   2.80999e+07  1777153    1.11%
 122716 86414        cutoff         2.84159e+07   2.80999e+07  1777266    1.11%
 122717 86413        cutoff         2.84159e+07   2.80999e+07  1777356    1.11%
 122718 86412        cutoff         2.84159e+07   2.80999e+07  1777388    1.11%
 122719 86413   2.80999e+07    19   2.84159e+07   2.80999e+07  1777448    1.11%
 122720 86414   2.80999e+07    19   2.84159e+07   2.80999e+07  1777458    1.11%
Elapsed time = 50.05 sec. (66046.79 ticks, tree = 44.67 MB, solutions = 27)
 128691 90649   2.82657e+07    24   2.84159e+07   2.80999e+07  1879271    1.11%
 128692 90648        cutoff         2.84159e+07   2.80999e+07  1879279    1.11%
 128693 90647        cutoff         2.84159e+07   2.80999e+07  1879281    1.11%
 128694 90648   2.80999e+07    23   2.84159e+07   2.80999e+07  1879322    1.11%
 128695 90649   2.80999e+07    22   2.84159e+07   2.80999e+07  1879324    1.11%
 128696 90650   2.80999e+07    27   2.84159e+07   2.80999e+07  1879383    1.11%
 128697 90651   2.80999e+07    28   2.84159e+07   2.80999e+07  1879445    1.11%
 128698 90652   2.80999e+07    38   2.84159e+07   2.80999e+07  1879459    1.11%
 128699 90653   2.80999e+07    35   2.84159e+07   2.80999e+07  1879461    1.11%
 128700 90654   2.80999e+07    34   2.84159e+07   2.80999e+07  1879464    1.11%
Elapsed time = 53.24 sec. (69868.19 ticks, tree = 46.73 MB, solutions = 27)
 134062 93844        cutoff         2.84159e+07   2.80999e+07  1978828    1.11%
 134063 93843    infeasible         2.84159e+07   2.80999e+07  1978828    1.11%
 134064 93842    infeasible         2.84159e+07   2.80999e+07  1978828    1.11%
 134065 93841    infeasible         2.84159e+07   2.80999e+07  1978828    1.11%
 134066 93841   2.83807e+07    31   2.84159e+07   2.80999e+07  1978909    1.11%
 134067 93840        cutoff         2.84159e+07   2.80999e+07  1978914    1.11%
 134068 93839    infeasible         2.84159e+07   2.80999e+07  1978914    1.11%
 134069 93838    infeasible         2.84159e+07   2.80999e+07  1978914    1.11%
 134070 93837    infeasible         2.84159e+07   2.80999e+07  1978914    1.11%
 134071 93836    infeasible         2.84159e+07   2.80999e+07  1978914    1.11%
Elapsed time = 56.91 sec. (73687.48 ticks, tree = 48.30 MB, solutions = 27)
 139399 96977   2.82428e+07    26   2.84159e+07   2.80999e+07  2081617    1.11%
 139400 96977   2.82429e+07    26   2.84159e+07   2.80999e+07  2081618    1.11%
 139401 96978   2.82438e+07    29   2.84159e+07   2.80999e+07  2081625    1.11%
 139402 96979   2.82438e+07    26   2.84159e+07   2.80999e+07  2081626    1.11%
 139403 96980   2.82442e+07    27   2.84159e+07   2.80999e+07  2081630    1.11%
 139404 96979        cutoff         2.84159e+07   2.80999e+07  2081633    1.11%
 139405 96979   2.82460e+07    32   2.84159e+07   2.80999e+07  2081643    1.11%
 139406 96980   2.82464e+07    32   2.84159e+07   2.80999e+07  2081644    1.11%
 139407 96981   2.82464e+07    32   2.84159e+07   2.80999e+07  2081645    1.11%
 139408 96980        cutoff         2.84159e+07   2.80999e+07  2081654    1.11%
Elapsed time = 61.02 sec. (77505.40 ticks, tree = 49.84 MB, solutions = 27)
 145151 100505   2.80999e+07    28   2.84159e+07   2.80999e+07  2185108    1.11%
 145152 100506   2.80999e+07    31   2.84159e+07   2.80999e+07  2185123    1.11%
 145153 100507   2.80999e+07    30   2.84159e+07   2.80999e+07  2185124    1.11%
 145154 100508   2.80999e+07    25   2.84159e+07   2.80999e+07  2185129    1.11%
 145155 100509   2.80999e+07    38   2.84159e+07   2.80999e+07  2185209    1.11%
 145156 100510   2.80999e+07    35   2.84159e+07   2.80999e+07  2185218    1.11%
 145157 100511   2.80999e+07    31   2.84159e+07   2.80999e+07  2185223    1.11%
 145158 100512   2.80999e+07    36   2.84159e+07   2.80999e+07  2185226    1.11%
 145159 100513   2.80999e+07    32   2.84159e+07   2.80999e+07  2185229    1.11%
 145160 100514   2.80999e+07    30   2.84159e+07   2.80999e+07  2185230    1.11%
Elapsed time = 64.67 sec. (81324.66 ticks, tree = 51.60 MB, solutions = 27)
 150727 103912   2.80999e+07    19   2.84159e+07   2.80999e+07  2285054    1.11%
 150728 103913   2.80999e+07    22   2.84159e+07   2.80999e+07  2285071    1.11%
 150729 103914   2.80999e+07    18   2.84159e+07   2.80999e+07  2285072    1.11%
 150730 103915   2.80999e+07    18   2.84159e+07   2.80999e+07  2285074    1.11%
 150731 103916   2.80999e+07    17   2.84159e+07   2.80999e+07  2285078    1.11%
 150732 103917   2.80999e+07    22   2.84159e+07   2.80999e+07  2285084    1.11%
 150733 103918   2.80999e+07    21   2.84159e+07   2.80999e+07  2285091    1.11%
 150734 103919   2.80999e+07    19   2.84159e+07   2.80999e+07  2285093    1.11%
 150735 103920   2.80999e+07    17   2.84159e+07   2.80999e+07  2285096    1.11%
 150736 103921   2.80999e+07    32   2.84159e+07   2.80999e+07  2285194    1.11%
Elapsed time = 68.35 sec. (85143.69 ticks, tree = 53.29 MB, solutions = 27)
 156640 107661   2.80999e+07    25   2.84159e+07   2.80999e+07  2385269    1.11%
 156641 107662   2.80999e+07    26   2.84159e+07   2.80999e+07  2385313    1.11%
 156642 107663   2.80999e+07    25   2.84159e+07   2.80999e+07  2385338    1.11%
 156643 107664   2.80999e+07    31   2.84159e+07   2.80999e+07  2385408    1.11%
 156644 107665   2.80999e+07    34   2.84159e+07   2.80999e+07  2385412    1.11%
 156645 107666   2.80999e+07    36   2.84159e+07   2.80999e+07  2385414    1.11%
 156646 107666   2.80999e+07    36   2.84159e+07   2.80999e+07  2385428    1.11%
 156647 107667   2.80999e+07    35   2.84159e+07   2.80999e+07  2385430    1.11%
 156648 107668   2.80999e+07    37   2.84159e+07   2.80999e+07  2385435    1.11%
 156649 107669   2.80999e+07    33   2.84159e+07   2.80999e+07  2385436    1.11%
Elapsed time = 71.98 sec. (88964.15 ticks, tree = 55.12 MB, solutions = 27)
 162521 111685   2.80999e+07    20   2.84159e+07   2.80999e+07  2485442    1.11%
 162522 111686   2.80999e+07    19   2.84159e+07   2.80999e+07  2485474    1.11%
 162523 111687   2.80999e+07    26   2.84159e+07   2.80999e+07  2485499    1.11%
 162524 111688   2.80999e+07    22   2.84159e+07   2.80999e+07  2485501    1.11%
 162525 111689   2.80999e+07    28   2.84159e+07   2.80999e+07  2485512    1.11%
 162526 111690   2.80999e+07    23   2.84159e+07   2.80999e+07  2485519    1.11%
 162527 111691   2.80999e+07    25   2.84159e+07   2.80999e+07  2485530    1.11%
 162528 111692   2.80999e+07    22   2.84159e+07   2.80999e+07  2485534    1.11%
 162529 111693   2.80999e+07    28   2.84159e+07   2.80999e+07  2485576    1.11%
 162530 111694   2.80999e+07    27   2.84159e+07   2.80999e+07  2485586    1.11%
Elapsed time = 75.60 sec. (92784.10 ticks, tree = 57.11 MB, solutions = 27)
 167929 115276        cutoff         2.84159e+07   2.80999e+07  2581605    1.11%
 167930 115277   2.80999e+07    24   2.84159e+07   2.80999e+07  2581629    1.11%
 167931 115278   2.80999e+07    22   2.84159e+07   2.80999e+07  2581654    1.11%
 167932 115279   2.80999e+07    21   2.84159e+07   2.80999e+07  2581673    1.11%
 167933 115280   2.80999e+07    21   2.84159e+07   2.80999e+07  2581679    1.11%
 167934 115281   2.80999e+07    19   2.84159e+07   2.80999e+07  2581685    1.11%
 167935 115282   2.80999e+07    34   2.84159e+07   2.80999e+07  2581721    1.11%
 167936 115283   2.80999e+07    35   2.84159e+07   2.80999e+07  2581724    1.11%
 167937 115284   2.80999e+07    35   2.84159e+07   2.80999e+07  2581725    1.11%
 167938 115284   2.81867e+07    27   2.84159e+07   2.80999e+07  2581767    1.11%
Elapsed time = 79.27 sec. (96605.83 ticks, tree = 58.87 MB, solutions = 27)
 173235 118468   2.80999e+07    26   2.84159e+07   2.80999e+07  2684281    1.11%
 173236 118469   2.81449e+07    20   2.84159e+07   2.80999e+07  2684302    1.11%
 173237 118468        cutoff         2.84159e+07   2.80999e+07  2684306    1.11%
 173238 118467        cutoff         2.84159e+07   2.80999e+07  2684307    1.11%
 173239 118466        cutoff         2.84159e+07   2.80999e+07  2684339    1.11%
 173240 118467   2.80999e+07    20   2.84159e+07   2.80999e+07  2684344    1.11%
 173241 118468   2.80999e+07    28   2.84159e+07   2.80999e+07  2684369    1.11%
 173242 118469   2.81018e+07    22   2.84159e+07   2.80999e+07  2684465    1.11%
 173243 118468        cutoff         2.84159e+07   2.80999e+07  2684469    1.11%
 173244 118467    infeasible         2.84159e+07   2.80999e+07  2684469    1.11%
Elapsed time = 82.98 sec. (100427.78 ticks, tree = 60.45 MB, solutions = 27)
 178799 121960   2.80999e+07    22   2.84159e+07   2.80999e+07  2789243    1.11%
 178800 121961   2.80999e+07    24   2.84159e+07   2.80999e+07  2789249    1.11%
 178801 121962   2.80999e+07    27   2.84159e+07   2.80999e+07  2789306    1.11%
 178802 121963   2.80999e+07    23   2.84159e+07   2.80999e+07  2789312    1.11%
 178803 121964   2.80999e+07    22   2.84159e+07   2.80999e+07  2789333    1.11%
 178804 121965   2.80999e+07    23   2.84159e+07   2.80999e+07  2789372    1.11%
 178805 121966   2.80999e+07    22   2.84159e+07   2.80999e+07  2789420    1.11%
 178806 121967   2.80999e+07    21   2.84159e+07   2.80999e+07  2789427    1.11%
 178807 121968   2.80999e+07    20   2.84159e+07   2.80999e+07  2789444    1.11%
 178808 121969   2.80999e+07    23   2.84159e+07   2.80999e+07  2789488    1.11%
Elapsed time = 86.65 sec. (104249.96 ticks, tree = 62.18 MB, solutions = 27)
 184701 125913   2.82334e+07    25   2.84159e+07   2.80999e+07  2887835    1.11%
 184702 125914   2.82415e+07    24   2.84159e+07   2.80999e+07  2887851    1.11%
 184703 125915   2.82415e+07    24   2.84159e+07   2.80999e+07  2887853    1.11%
 184704 125916   2.82430e+07    26   2.84159e+07   2.80999e+07  2887857    1.11%
 184705 125917   2.82430e+07    26   2.84159e+07   2.80999e+07  2887858    1.11%
 184706 125918   2.82432e+07    24   2.84159e+07   2.80999e+07  2887859    1.11%
 184707 125919   2.82441e+07    24   2.84159e+07   2.80999e+07  2887861    1.11%
 184708 125920   2.82441e+07    23   2.84159e+07   2.80999e+07  2887863    1.11%
 184709 125921   2.82453e+07    24   2.84159e+07   2.80999e+07  2887865    1.11%
 184710 125920        cutoff         2.84159e+07   2.80999e+07  2887869    1.11%
Elapsed time = 90.65 sec. (108185.52 ticks, tree = 64.13 MB, solutions = 27)
 187357 127406   2.80999e+07    21   2.84159e+07   2.80999e+07  2935335    1.11%
 187358 127407   2.83591e+07    29   2.84159e+07   2.80999e+07  2935426    1.11%
 187359 127406        cutoff         2.84159e+07   2.80999e+07  2935428    1.11%
 187360 127405        cutoff         2.84159e+07   2.80999e+07  2935430    1.11%
 187361 127404        cutoff         2.84159e+07   2.80999e+07  2935441    1.11%
 187362 127405   2.80999e+07    18   2.84159e+07   2.80999e+07  2935485    1.11%
 187363 127406   2.80999e+07    19   2.84159e+07   2.80999e+07  2935508    1.11%
 187364 127407   2.80999e+07    18   2.84159e+07   2.80999e+07  2935517    1.11%
 187365 127408   2.80999e+07    17   2.84159e+07   2.80999e+07  2935525    1.11%
 187366 127409   2.80999e+07    21   2.84159e+07   2.80999e+07  2935544    1.11%
Elapsed time = 94.06 sec. (112010.28 ticks, tree = 64.87 MB, solutions = 27)
 191801 129686   2.80999e+07    28   2.84159e+07   2.80999e+07  3010121    1.11%
 191802 129687   2.80999e+07    30   2.84159e+07   2.80999e+07  3010219    1.11%
 191803 129688   2.80999e+07    28   2.84159e+07   2.80999e+07  3010225    1.11%
 191804 129689   2.80999e+07    27   2.84159e+07   2.80999e+07  3010226    1.11%
 191805 129690   2.80999e+07    26   2.84159e+07   2.80999e+07  3010232    1.11%
 191806 129689        cutoff         2.84159e+07   2.80999e+07  3010267    1.11%
 191807 129690   2.80999e+07    34   2.84159e+07   2.80999e+07  3010272    1.11%
 191808 129691   2.80999e+07    28   2.84159e+07   2.80999e+07  3010273    1.11%
 191809 129692   2.80999e+07    24   2.84159e+07   2.80999e+07  3010283    1.11%
 191810 129693   2.80999e+07    28   2.84159e+07   2.80999e+07  3010287    1.11%
Elapsed time = 97.55 sec. (115837.92 ticks, tree = 66.02 MB, solutions = 27)

Cover cuts applied:  355
Mixed integer rounding cuts applied:  5
Gomory fractional cuts applied:  5

Root node processing (before b&c):
  Real time             =    0.03 sec. (37.66 ticks)
Sequential b&c:
  Real time             =   99.97 sec. (118355.87 ticks)
                          ------------
Total (root+branch&cut) =  100.00 sec. (118393.53 ticks)

Solution pool: 27 solutions saved.

MIP - Time limit exceeded, integer feasible:  Objective =  2.8415864000e+07
Current MIP best bound =  2.8099855000e+07 (gap = 316009, 1.11%)
Solution time =  100.00 sec.  Iterations = 3076610  Nodes = 195779 (131485)
Deterministic time = 118393.53 ticks  (1183.93 ticks/sec)


Incumbent solution written to file '/tmp/tmp3Jkf7A.cplex.sol'.
